decision_x1=[0,4];
decision_x2=[0,4];
decision_x3=[0,4];
decision_x4=[0,4];
decision_x5=[0,4];
decision_x6=[0,4];
decision_x7=[0,4];
decision_x8=[0,4];
decision_x9=[0,4];
decision_x10=[0,4];
random_y1=[0,4];
random_y2=[0,4];
random_y3=[0,4];
random_y4=[0,4];
random_y5=[0,4];
constraint_x2_x1=[
0,1,0.44|
0,2,6.1|
0,3,5.4|
0,4,3.8|
1,0,4|
1,2,9.2|
1,3,0.57|
1,4,7.3|
2,0,9.2|
2,1,5.7|
2,3,5.2|
2,4,2.7|
3,0,7|
3,1,3.8|
3,2,5.1|
3,4,4.9|
4,0,2.9|
4,1,1.9|
4,2,2.1|
4,3,0.45|
];
constraint_x3_x1=[
0,1,4.7|
0,2,4.1|
0,3,2.8|
0,4,7.4|
1,0,5.5|
1,2,6|
1,3,5.8|
1,4,2.6|
2,0,4.7|
2,1,7.4|
2,3,9.7|
2,4,0.83|
3,0,4.2|
3,1,7.5|
3,2,8.7|
3,4,5.7|
4,0,2.3|
4,1,1.7|
4,2,8.4|
4,3,7.9|
];
constraint_x3_x2=[
0,1,6.9|
0,2,9.9|
0,3,8.1|
0,4,2|
1,0,2.1|
1,2,2.8|
1,3,9.5|
1,4,7.7|
2,0,9.7|
2,1,2.6|
2,3,4.5|
2,4,9.3|
3,0,0.21|
3,1,5.7|
3,2,2.3|
3,4,7.1|
4,0,3.2|
4,1,7.7|
4,2,8.2|
4,3,1.1|
];
constraint_x4_x1=[
0,1,2.1|
0,2,7.5|
0,3,9|
0,4,3.8|
1,0,9.1|
1,2,6.8|
1,3,5.1|
1,4,3.1|
2,0,7.8|
2,1,8.7|
2,3,6.3|
2,4,1.8|
3,0,7.5|
3,1,5.7|
3,2,6.8|
3,4,7.7|
4,0,7.8|
4,1,2|
4,2,5.5|
4,3,4.2|
];
constraint_x4_x2=[
0,1,2.4|
0,2,5.1|
0,3,0.004|
0,4,7.6|
1,0,4|
1,2,0.9|
1,3,9.9|
1,4,9.4|
2,0,8.9|
2,1,2.3|
2,3,3.3|
2,4,2.8|
3,0,1.8|
3,1,3.4|
3,2,0.0039|
3,4,0.92|
4,0,9.7|
4,1,8.2|
4,2,2.1|
4,3,4.7|
];
constraint_x5_x3=[
0,1,5.8|
0,2,7.5|
0,3,5|
0,4,8.4|
1,0,1.7|
1,2,6.7|
1,3,6.5|
1,4,0.59|
2,0,8.1|
2,1,0.34|
2,3,5|
2,4,5.2|
3,0,2.1|
3,1,8.4|
3,2,2.8|
3,4,8.8|
4,0,2.4|
4,1,5.4|
4,2,3.1|
4,3,6.1|
];
constraint_x6_x2=[
0,1,0.98|
0,2,9.6|
0,3,3.2|
0,4,4.5|
1,0,0.69|
1,2,6.6|
1,3,8.6|
1,4,3.6|
2,0,0.11|
2,1,6.8|
2,3,8.6|
2,4,9.1|
3,0,8.6|
3,1,3.7|
3,2,4.3|
3,4,9.4|
4,0,9.9|
4,1,6.5|
4,2,3.9|
4,3,5.7|
];
constraint_x6_x4=[
0,1,7.7|
0,2,2.8|
0,3,3.6|
0,4,9.4|
1,0,7.6|
1,2,5.5|
1,3,3.6|
1,4,0.26|
2,0,9.4|
2,1,2.4|
2,3,5.9|
2,4,6|
3,0,7.5|
3,1,3.8|
3,2,8.7|
3,4,5|
4,0,7|
4,1,9.5|
4,2,3.8|
4,3,8.2|
];
constraint_x7_x1=[
0,1,0.17|
0,2,6.4|
0,3,3|
0,4,7.3|
1,0,6.3|
1,2,8.2|
1,3,9.4|
1,4,2|
2,0,6.3|
2,1,7.7|
2,3,8.5|
2,4,9.4|
3,0,8.3|
3,1,3.5|
3,2,5.4|
3,4,8.2|
4,0,2.4|
4,1,0.98|
4,2,8.2|
4,3,8.6|
];
constraint_x7_x2=[
0,1,9|
0,2,5.4|
0,3,1.5|
0,4,5.6|
1,0,6.1|
1,2,2.2|
1,3,9.4|
1,4,5.5|
2,0,2.1|
2,1,7.3|
2,3,9.1|
2,4,8.4|
3,0,9.5|
3,1,1.3|
3,2,7.3|
3,4,6.5|
4,0,0.91|
4,1,8.3|
4,2,1.7|
4,3,2.8|
];
constraint_x7_x4=[
0,1,0.9|
0,2,5.2|
0,3,5.8|
0,4,7.5|
1,0,8.1|
1,2,7.8|
1,3,8.5|
1,4,7.6|
2,0,1.1|
2,1,1.9|
2,3,3.5|
2,4,2.5|
3,0,0.63|
3,1,2.1|
3,2,3.8|
3,4,5.8|
4,0,5.1|
4,1,7.5|
4,2,9.9|
4,3,5.3|
];
constraint_x7_x5=[
0,1,2.4|
0,2,6.6|
0,3,3.9|
0,4,9.4|
1,0,3|
1,2,1.6|
1,3,6.3|
1,4,0.56|
2,0,3.4|
2,1,2.1|
2,3,0.81|
2,4,0.61|
3,0,2.6|
3,1,3.5|
3,2,1.2|
3,4,1.3|
4,0,7.4|
4,1,0.25|
4,2,4.9|
4,3,8.3|
];
constraint_x8_x4=[
0,1,8|
0,2,5.1|
0,3,9.4|
0,4,0.94|
1,0,4|
1,2,8.9|
1,3,8.2|
1,4,1.5|
2,0,2.6|
2,1,1.1|
2,3,3.2|
2,4,5.8|
3,0,6.2|
3,1,4.8|
3,2,2.1|
3,4,2.3|
4,0,4.5|
4,1,2|
4,2,2.9|
4,3,3.6|
];
constraint_x8_x5=[
0,1,1.7|
0,2,6.7|
0,3,5.6|
0,4,0.7|
1,0,5.9|
1,2,9.5|
1,3,7.7|
1,4,8.1|
2,0,7.4|
2,1,3.9|
2,3,6.4|
2,4,6|
3,0,2|
3,1,6.1|
3,2,7.1|
3,4,7.5|
4,0,8.9|
4,1,6.5|
4,2,2.1|
4,3,4.1|
];
constraint_x8_x7=[
0,1,8.4|
0,2,5.5|
0,3,9.7|
0,4,2.5|
1,0,2.3|
1,2,4.6|
1,3,9.5|
1,4,8.9|
2,0,6.4|
2,1,2|
2,3,7.8|
2,4,2|
3,0,1.4|
3,1,5.1|
3,2,2.8|
3,4,2.5|
4,0,2.2|
4,1,1.3|
4,2,6|
4,3,4.9|
];
constraint_x9_x4=[
0,1,8.5|
0,2,9.6|
0,3,0.32|
0,4,1.9|
1,0,0.82|
1,2,1.6|
1,3,8.7|
1,4,5|
2,0,1.2|
2,1,7.7|
2,3,5.8|
2,4,0.91|
3,0,6.5|
3,1,0.37|
3,2,7.1|
3,4,1|
4,0,0.58|
4,1,2|
4,2,5|
4,3,6.4|
];
constraint_x9_x5=[
0,1,7.5|
0,2,7.6|
0,3,2.2|
0,4,2|
1,0,0.93|
1,2,5|
1,3,2.8|
1,4,6.6|
2,0,5.7|
2,1,8.2|
2,3,8.8|
2,4,8|
3,0,6.3|
3,1,5.8|
3,2,4|
3,4,1.6|
4,0,4.3|
4,1,1.8|
4,2,8.3|
4,3,2.5|
];
constraint_x9_x6=[
0,1,3.8|
0,2,4.1|
0,3,0.9|
0,4,9.7|
1,0,8.1|
1,2,2.5|
1,3,3.2|
1,4,2.5|
2,0,1.3|
2,1,8.5|
2,3,0.15|
2,4,2.6|
3,0,7.1|
3,1,7.9|
3,2,9|
3,4,4.3|
4,0,1.1|
4,1,0.98|
4,2,3.2|
4,3,2.1|
];
constraint_x9_x7=[
0,1,7.5|
0,2,3.3|
0,3,2.5|
0,4,5.4|
1,0,0.2|
1,2,3.3|
1,3,3.9|
1,4,1.2|
2,0,6|
2,1,9.4|
2,3,7|
2,4,6.2|
3,0,8.9|
3,1,2.8|
3,2,7.3|
3,4,6.9|
4,0,0.38|
4,1,8.7|
4,2,5.8|
4,3,2.3|
];
constraint_x10_x1=[
0,1,2.5|
0,2,4.2|
0,3,6.3|
0,4,0.2|
1,0,2.5|
1,2,3.7|
1,3,2.8|
1,4,0.73|
2,0,1.3|
2,1,5.9|
2,3,8.4|
2,4,4.5|
3,0,4.1|
3,1,6.8|
3,2,5.4|
3,4,0.37|
4,0,1.1|
4,1,7.8|
4,2,8.1|
4,3,2.3|
];
constraint_x10_x2=[
0,1,3.3|
0,2,6.7|
0,3,9.9|
0,4,9.6|
1,0,7.8|
1,2,8.3|
1,3,7.2|
1,4,9.8|
2,0,0.63|
2,1,7.8|
2,3,3.5|
2,4,0.11|
3,0,6.3|
3,1,5|
3,2,1.3|
3,4,8|
4,0,4.9|
4,1,9.6|
4,2,9.4|
4,3,8.4|
];
constraint_x10_x7=[
0,1,9.6|
0,2,4.6|
0,3,6.3|
0,4,8.3|
1,0,3|
1,2,6.4|
1,3,8.6|
1,4,3.4|
2,0,6.3|
2,1,4.9|
2,3,2.2|
2,4,3.4|
3,0,4.5|
3,1,1.1|
3,2,1.2|
3,4,8.6|
4,0,6.9|
4,1,2.1|
4,2,8.7|
4,3,3.5|
];
constraint_x10_x9=[
0,1,8.4|
0,2,0.55|
0,3,5.3|
0,4,6.9|
1,0,0.18|
1,2,3.3|
1,3,2.5|
1,4,6.5|
2,0,4.5|
2,1,9.5|
2,3,5.4|
2,4,2.3|
3,0,7.7|
3,1,2.9|
3,2,1.1|
3,4,0.13|
4,0,6.5|
4,1,5.3|
4,2,0.13|
4,3,5.9|
];
constraint_x1_y1=[
0,0,9|
0,1,4.5|
0,2,2.6|
0,3,9.5|
0,4,2.7|
1,0,5.4|
1,1,1.7|
1,2,7.8|
1,3,8.9|
1,4,7.9|
2,0,6.7|
2,1,6|
2,2,5.4|
2,3,3.9|
2,4,5.8|
3,0,2.3|
3,1,4.6|
3,2,3.2|
3,3,5.4|
3,4,9.8|
4,0,2.7|
4,1,7.6|
4,2,9.5|
4,3,0.18|
4,4,4.9|
];
constraint_x2_y2=[
0,0,5.8|
0,1,1.8|
0,2,5.6|
0,3,3.9|
0,4,7.9|
1,0,8.7|
1,1,2.1|
1,2,7.8|
1,3,6.5|
1,4,6.4|
2,0,5.1|
2,1,6.9|
2,2,6.6|
2,3,9.5|
2,4,7|
3,0,4|
3,1,0.61|
3,2,1.4|
3,3,4.3|
3,4,0.31|
4,0,1.5|
4,1,1.8|
4,2,7.4|
4,3,0.74|
4,4,0.17|
];
constraint_x3_y3=[
0,0,2|
0,1,5.4|
0,2,9.8|
0,3,5.6|
0,4,7.3|
1,0,0.047|
1,1,4.5|
1,2,8.6|
1,3,7.9|
1,4,0.037|
2,0,3.4|
2,1,6.6|
2,2,6.4|
2,3,8.9|
2,4,1.7|
3,0,5.8|
3,1,2.3|
3,2,7.8|
3,3,1.7|
3,4,0.51|
4,0,3|
4,1,2.9|
4,2,7.4|
4,3,6.1|
4,4,9.9|
];
constraint_x4_y4=[
0,0,5.6|
0,1,8.2|
0,2,8.8|
0,3,4.4|
0,4,4.8|
1,0,8.3|
1,1,8.2|
1,2,2.8|
1,3,9.5|
1,4,8.8|
2,0,0.14|
2,1,8.6|
2,2,8.1|
2,3,3.7|
2,4,8.1|
3,0,3|
3,1,8.7|
3,2,8.8|
3,3,6.8|
3,4,6.7|
4,0,8.1|
4,1,9.7|
4,2,9|
4,3,5.9|
4,4,8|
];
constraint_x5_y5=[
0,0,8.8|
0,1,8.3|
0,2,5.1|
0,3,7.7|
0,4,5.8|
1,0,7.9|
1,1,2.1|
1,2,0.3|
1,3,4.2|
1,4,0.96|
2,0,6.3|
2,1,8.9|
2,2,3|
2,3,1.1|
2,4,4.7|
3,0,1.2|
3,1,3.5|
3,2,3.7|
3,3,9.8|
3,4,2.3|
4,0,7.1|
4,1,9|
4,2,2.6|
4,3,9.9|
4,4,0.57|
];
initial_distribution_y1=[0.19,0.21,0.22,0.24,0.13];
initial_distribution_y2=[0.28,0.16,0.32,0.053,0.18];
initial_distribution_y3=[0.084,0.29,0.3,0.33,0.0042];
initial_distribution_y4=[0.24,0.085,0.36,0.2,0.12];
initial_distribution_y5=[0.017,0.25,0.23,0.15,0.36];
transition_y1=[
0.27,0.23,0.1,0.3,0.1|
0.29,0.15,0.12,0.22,0.21|
0.22,0.01,0.22,0.35,0.19|
0.055,0.27,0.27,0.25,0.16|
0.19,0.026,0.2,0.29,0.3|
];
transition_y2=[
0.17,0.3,0.21,0.27,0.049|
0.28,0.24,0.27,0.15,0.054|
0.31,0.0094,0.35,0.22,0.12|
0.2,0.27,0.25,0.26,0.027|
0.032,0.37,0.19,0.034,0.37|
];
transition_y3=[
0.27,0.088,0.26,0.1,0.29|
0.26,0.41,0.24,0.056,0.028|
0.21,0.11,0.3,0.13,0.25|
0.25,0.37,0.19,0.056,0.13|
0.4,0.15,0.051,0.32,0.08|
];
transition_y4=[
0.017,0.21,0.18,0.53,0.061|
0.29,0.24,0.1,0.26,0.11|
0.22,0.23,0.3,0.16,0.092|
0.027,0.061,0.29,0.61,0.014|
0.087,0.26,0.027,0.16,0.46|
];
transition_y5=[
0.048,0.18,0.38,0.17,0.23|
0.3,0.12,0.27,0.08,0.24|
0.23,0.24,0.1,0.28,0.15|
0.068,0.24,0.26,0.28,0.15|
0.2,0.13,0.38,0.093,0.2|
];
